/*********************************************
 * OPL 12.3 Data
 * Author: Pawel Zielinski
 *********************************************/
n = 4; // liczba wierz
s = 1; // zrodlo
t = 4; // ujscie

//mostek Wheastone'a
A ={//<i , j, koszt>
	<1, 2,   1>,
    <1, 3,   4>,
    <2, 3,   2>,
    <2, 4,   8>,
    <3, 4,   5>
    };
 